Route #1: 1 10 24 15 44 7 27 46 39 1
Route #2: 1 22 42 21 28 2 41 35 32 30 4 6 1
Route #3: 1 18 29 11 8 23 40 37 1
Route #4: 1 45 26 19 36 13 12 1
Route #5: 1 33 25 17 43 16 34 9 1
Route #6: 1 38 3 5 31 14 1
Route #7: 1 20 1
cost 1121.801214725294